100 10
807 316
61 802
724 285
698 777
511 172
847 474
404 588
863 645
740 523
326 868
792 418
630 416
205 592
413 733
324 575
522 731
549 403
147 720
191 486
319 787
349 846
302 399
784 404
359 595
458 447
901 351
708 367
480 341
554 385
147 527
434 162
555 188
317 740
321 774
340 510
302 924
251 803
310 910
277 630
679 976
858 550
300 763
526 591
288 619
624 618
472 714
145 542
465 459
222 525
696 516
427 704
770 432
492 131
663 658
85 788
132 832
832 632
656 227
425 589
493 358
444 452
407 123
259 488
687 177
39 275
473 744
657 715
791 655
493 317
616 741
740 485
473 906
915 339
641 152
371 576
282 783
511 338
120 850
377 633
590 153
510 873
270 709
647 824
566 431
221 737
320 580
499 145
619 367
684 164
854 515
393 901
344 709
542 588
613 404
507 563
617 620
670 518
402 686
663 613
337 740
